p cnf 10 50
-4 -8 -9 0
-10 6 -9 0
-9 1 8 0
10 -8 -1 0
-9 -7 -6 0
-2 -3 -6 0
8 -9 6 0
-5 7 -9 0
-4 6 -5 0
-7 -6 -4 0
1 -9 -4 0
-2 1 -3 0
8 9 -10 0
-8 -5 6 0
-3 2 -10 0
5 3 -6 0
-2 6 -10 0
10 1 5 0
4 -7 6 0
7 -6 8 0
-1 -9 2 0
5 10 -2 0
2 1 -10 0
-7 -10 1 0
-5 -10 1 0
-2 -7 -9 0
-8 4 1 0
-10 -9 -1 0
3 8 -6 0
1 -9 -7 0
10 -9 -1 0
-1 -4 2 0
5 7 2 0
-4 10 -9 0
-3 -8 6 0
-2 9 -4 0
8 1 5 0
-7 -3 10 0
9 -6 -7 0
-8 5 1 0
8 -3 -1 0
-10 -4 -9 0
-8 3 -7 0
7 -4 8 0
2 -7 -5 0
4 6 -2 0
-8 -5 -6 0
-7 -8 -2 0
-8 -3 -4 0
-8 1 -2 0
